
Gurobi 9.5.1 (linux64) logging started Tue 26 Jul 2022 12:19:39 PM MST

Set parameter LogFile to value "/home/local/ASUAD/kmajd1/NNRepLayer_v2/demos/walking_example/dynamic_constraint/repair_net/logs/opt_log_7_26_2022_12_2_40.log"
Gurobi Optimizer version 9.5.1 build v9.5.1rc2 (linux64)
Thread count: 48 physical cores, 96 logical processors, using up to 45 threads
Optimize a model with 339698 rows, 270094 columns and 5552062 nonzeros
Model fingerprint: 0xe0c583e4
Model has 270 quadratic objective terms
Variable types: 200974 continuous, 69120 integer (69120 binary)
Coefficient statistics:
  Matrix range     [3e-05, 2e+02]
  Objective range  [3e-03, 1e+00]
  QObjective range [7e-02, 7e-02]
  Bounds range     [3e-01, 1e+03]
  RHS range        [1e-06, 2e+02]

Concurrent MIP optimizer: 3 concurrent instances (15 threads per instance)

Presolve removed 568 rows and 56 columns (presolve time = 5s) ...
Presolve removed 10296 rows and 19512 columns (presolve time = 10s) ...
Presolve removed 20024 rows and 19512 columns (presolve time = 15s) ...
Presolve removed 20024 rows and 19512 columns (presolve time = 20s) ...
Presolve removed 20024 rows and 19512 columns
Presolve time: 21.31s
Presolved: 319674 rows, 250582 columns, 5512643 nonzeros
Presolved model has 270 quadratic objective terms
Variable types: 181490 continuous, 69092 integer (69092 binary)
Root relaxation presolve removed 69089 rows and 69089 columns (presolve time = 5s) ...
Root relaxation presolve removed 69089 rows and 69089 columns (presolve time = 10s) ...
Root relaxation presolve removed 69089 rows and 69089 columns (presolve time = 15s) ...
Root relaxation presolve removed 69089 rows and 69089 columns (presolve time = 20s) ...
Root relaxation presolve removed 69089 rows and 69089 columns (presolve time = 25s) ...
Root relaxation presolve removed 69089 rows and 69089 columns (presolve time = 30s) ...
Root relaxation presolve removed 69089 rows and 69089 columns
Root relaxation presolved: 250585 rows, 181493 columns, 5305376 nonzeros
Root relaxation presolved model has 270 quadratic objective terms


Root simplex log...

Iteration    Objective       Primal Inf.    Dual Inf.      Time
       0    2.8296604e+01   0.000000e+00   0.000000e+00     55s
   55494    2.8296604e+01   1.010495e+04   0.000000e+00     60s
  129397    2.8296604e+01   0.000000e+00   0.000000e+00     65s
  129397    2.8296604e+01   0.000000e+00   0.000000e+00     66s

Root relaxation: objective 2.829660e+01, 129397 iterations, 42.08 seconds (60.52 work units)

    Nodes    |    Current Node    |     Objective Bounds      |     Work
 Expl Unexpl |  Obj  Depth IntInf | Incumbent    BestBd   Gap | It/Node Time

     0     0      -    -    -              -   28.29660      -     -   66s
     0     0      -    -    -              -   28.29660      -     -  183s
     0     2      -    -    -              -   28.29660      -     -  397s
     1     4      -    -    -              -   28.29660      -     -  405s
     7    16      -    -    -              -   28.29660      -     -  411s
    15    31      -    -    -              -   28.29660      -     -  611s
    30    46      -    -    -              -   28.29660      -     -  616s
    45    61      -    -    -              -   28.29660      -     -  620s
    75    91      -    -    -              -   28.29660      -     -  627s
    90   106      -    -    -              -   28.29660      -     -  630s
   105   121      -    -    -              -   28.29660      -     -  635s
   135   151      -    -    -              -   28.29660      -     -  642s
   150   166      -    -    -              -   28.29660      -     -  645s
   180   196      -    -    -              -   28.29660      -     -  651s
   210   226      -    -    -              -   28.29660      -     -  692s
   225   248      -    -    -              -   28.29660      -     -  697s
   247   276      -    -    -              -   28.29660      -     -  702s
   275   298      -    -    -              -   28.29660      -     -  707s
   297   327      -    -    -              -   28.29660      -     -  713s
   326   357      -    -    -              -   28.29660      -     -  718s
   356   387      -    -    -              -   28.29660      -     -  725s
   386   415      -    -    -              -   28.29660      -     -  731s
   414   443      -    -    -              -   28.29660      -     -  736s
   442   472      -    -    -              -   28.29660      -     -  745s
   471   502      -    -    -              -   28.29660      -     -  755s
   501   531      -    -    -              -   28.29660      -     -  776s
   530   562      -    -    -              -   28.29660      -     -  782s
   561   594      -    -    -              -   28.29660      -     -  789s
   593   638      -    -    -              -   28.29660      -     -  805s
   637   723      -    -    -              -   28.29660      -     -  813s
   722   792      -    -    -              -   28.29660      -     -  824s
   791   871      -    -    -              -   28.29660      -     -  862s
   870   970      -    -    -              -   28.29660      -     -  873s
   969  1081      -    -    -              -   28.29660      -     -  888s
  1080  1215      -    -    -              -   28.29660      -     -  902s
  1214  1376      -    -    -              -   28.29660      -     -  915s
  1375  1478      -    -    -              -   28.29660      -     -  942s
  1477  1659      -    -    -              -   28.29660      -     -  957s
  1658  1824      -    -    -              -   28.29660      -     - 1000s
  1823  2089      -    -    -              -   28.29660      -     - 1030s
  2088  2321      -    -    -              -   28.29660      -     - 1062s
  2320  2549      -    -    -              -   28.29660      -     - 1088s
  2548  2774      -    -    -              -   28.29660      -     - 1119s
  2773  3098      -    -    -              -   28.29660      -     - 1152s
  3097  3407      -    -    -              -   28.29660      -     - 1187s
  3406  3708      -    -    -              -   28.29660      -     - 1219s
  3707  4004      -    -    -              -   28.29660      -     - 1254s
  4003  4328      -    -    -              -   28.29660      -     - 1288s
  4327  4648      -    -    -              -   28.29660      -     - 1320s
  4647  4957      -    -    -              -   28.29660      -     - 1360s
  4956  5417      -    -    -              -   28.29660      -     - 1400s
  5416  5879      -    -    -              -   28.29660      -     - 1445s
  5878  6331      -    -    -              -   28.29660      -     - 1491s
  6330  6777      -    -    -              -   28.29660      -     - 1536s
  6776  7167      -    -    -              -   28.29660      -     - 1581s
  7166  7654      -    -    -              -   28.29660      -     - 1632s
  7653  8190      -    -    -              -   28.29660      -     - 1677s
  8189  8733      -    -    -              -   28.29660      -     - 1724s
  8732  9205      -    -    -              -   28.29660      -     - 1778s
  9204  9667      -    -    -              -   28.29660      -     - 1830s
  9666 10253      -    -    -              -   28.29660      -     - 1886s
 10253 10254      -    -    -              -   28.29660      -     - 1932s
 10255 10255      -    -    -              -   28.29660      -     - 2049s
 10257 10257      -    -    -     16902.6398   28.29660   100%     - 2434s
 10258 10260      -    -    -     3086.27942   28.29660  99.1%     - 2670s
 10264 10270      -    -    -     3086.27942   28.29660  99.1%     - 2678s
 10272 10283      -    -    -     3086.27942   28.29660  99.1%     - 2802s
 10287 10293      -    -    -     3086.27942   28.29660  99.1%     - 2806s
 10302 10303      -    -    -     3086.27942   28.29660  99.1%     - 2812s
 10317 10313      -    -    -     3086.27942   28.29660  99.1%     - 2815s
 10332 10323      -    -    -     3086.27942   28.29660  99.1%     - 2851s
 10362 10343      -    -    -     3086.27942   28.29660  99.1%     - 2856s
 10377 10353      -    -    -      176.97024   28.29660  84.0%     - 2874s
 10392 10368      -    -    -      176.97024   28.29660  84.0%     - 3099s
 10412 10378      -    -    -      176.97024   28.29660  84.0%     - 3348s
 10429  8484      -    -    -      174.44630   28.29660  83.8%     - 3684s
 10444  7329      -    -    -      174.44630   28.29660  83.8%     - 3694s
 10486  7351      -    -    -      174.44630   28.29660  83.8%     - 3727s
 10522  7382      -    -    -      174.44630   28.29660  83.8%     - 3748s
 10565  7412      -    -    -      174.44630   28.29660  83.8%     - 3758s
 10609  7438      -    -    -      174.44630   28.29660  83.8%     - 3799s
 10650  7082      -    -    -      174.44630   28.29660  83.8%     - 4205s
 10665  6805      -    -    -      174.44630   28.29660  83.8%     - 4227s
 10733  6844      -    -    -      174.44630   28.29660  83.8%     - 4248s
 10795  6884      -    -    -      174.44630   28.29660  83.8%     - 4265s
 10856  6941      -    -    -      174.44630   28.29660  83.8%     - 4285s
 10933  6986      -    -    -      174.44630   28.29660  83.8%     - 4311s
 11004  7031      -    -    -      174.44630   28.29660  83.8%     - 4328s
 11072  7084      -    -    -      174.44630   28.29660  83.8%     - 4348s
 11148  7141      -    -    -      174.44630   28.29660  83.8%     - 4368s
 11230  7196      -    -    -      174.44630   28.29660  83.8%     - 4436s
 11313  7252      -    -    -      174.44630   28.29660  83.8%     - 4460s
 11396  7325      -    -    -      174.44630   28.29660  83.8%     - 4481s
 11497  7384      -    -    -      174.44630   28.29660  83.8%     - 4503s
 11590  7450      -    -    -      174.44630   28.29660  83.8%     - 4520s
 11687  7433      -    -    -      170.06852   28.29660  83.4%     - 4651s
 11702  7197      -    -    -      170.06852   28.29660  83.4%     - 4676s
 11795  7272      -    -    -      170.06852   28.29660  83.4%     - 4698s
 11901  7334      -    -    -       69.95111   28.29660  59.5%     - 4731s
 11998  7413      -    -    -       69.95111   28.29660  59.5%     - 4759s
 12110  7479      -    -    -       69.95111   28.29660  59.5%     - 4788s
 12213  7556      -    -    -       69.95111   28.29660  59.5%     - 4814s
 12324  7589      -    -    -       69.95111   28.29660  59.5%     - 4856s
 12394  7682      -    -    -       69.95111   28.29660  59.5%     - 4886s
 12511  7746      -    -    -       69.95111   28.29660  59.5%     - 4922s
 12614  7777      -    -    -       69.95111   28.29660  59.5%     - 4962s
 12679  7894      -    -    -       69.95111   28.29660  59.5%     - 5002s
 12818  7877      -    -    -       69.95111   28.29660  59.5%     - 5458s
 12847  7695      -    -    -       69.95111   28.29660  59.5%     - 5495s
 12982  7799      -    -    -       69.95111   28.29660  59.5%     - 5532s
 13131  7922      -    -    -       69.95111   28.29660  59.5%     - 5569s
 13303  8004      -    -    -       69.95111   28.29660  59.5%     - 5642s
 13443  8147      -    -    -       69.95111   28.29660  59.5%     - 5681s
 13632  8257      -    -    -       69.95111   28.29660  59.5%     - 5730s
 13805  8389      -    -    -       69.95111   28.29660  59.5%     - 5786s
 13995  8532      -    -    -       69.95111   28.29660  59.5%     - 5836s
 14201  8680      -    -    -       69.95111   28.29660  59.5%     - 5886s
 14418  8815      -    -    -       69.95111   28.29660  59.5%     - 5940s
 14625  8968      -    -    -       69.95111   28.29660  59.5%     - 5995s
 14847  9060      -    -    -       69.95111   28.29660  59.5%     - 6047s
 15013  9220      -    -    -       69.95111   28.29660  59.5%     - 6258s
 15229  9427      -    -    -       69.95111   28.29660  59.5%     - 6326s
 15508  9618      -    -    -       69.95111   28.29660  59.5%     - 6397s
 15792  9815      -    -    -       69.95111   28.29660  59.5%     - 6457s
 16083  9993      -    -    -       69.36221   28.29660  59.2%     - 6527s
 16358 10220      -    -    -       69.36221   28.29660  59.2%     - 6605s
 16677 10547      -    -    -       69.36221   28.31058  59.2%     - 6676s
 17110 10957      -    -    -       69.36221   28.31058  59.2%     - 6727s
 17665 11317      -    -    -       69.36221   28.31058  59.2%     - 6885s
 18210 11738      -    -    -       69.36221   28.31058  59.2%     - 6954s
 18812 12145      -    -    -       69.36221   28.31058  59.2%     - 7028s
 19420 12561      -    -    -       69.36221   28.31058  59.2%     - 7106s
 20039 12956      -    -    -       69.36221   28.31058  59.2%     - 7187s
 20640 13536      -    -    -       69.36221   28.31058  59.2%     - 7397s
 21420 13829      -    -    -       69.36221   28.31058  59.2%     - 7467s
 21973 14170      -    -    -       69.36221   28.31058  59.2%     - 7532s
 22499 14531      -    -    -       69.36221   28.31058  59.2%     - 7592s
 23035 14888      -    -    -       69.36221   28.31058  59.2%     - 7656s
 23571 15317      -    -    -       69.36221   28.31058  59.2%     - 7721s
 24178 15703      -    -    -       69.36221   28.31058  59.2%     - 7787s
 24767 16109      -    -    -       69.36221   28.31058  59.2%     - 7859s
 25369 16494      -    -    -       69.36221   28.31058  59.2%     - 8014s
 25645 16402      -    -    -       69.36221   28.31058  59.2%     - 8015s
 25957 16319      -    -    -       69.36221   28.31058  59.2%     - 8180s
 25978 16803      -    -    -       69.36221   28.31058  59.2%     - 8271s
 26469 17203      -    -    -       69.36221   28.31058  59.2%     - 8365s
 27032 16789      -    -    -       69.36221   28.31058  59.2%     - 11441s
 27047 15296      -    -    -       69.36221   28.31058  59.2%     - 11668s
 27276 15978      -    -    -       69.36221   28.31058  59.2%     - 11789s
 28016 16655      -    -    -       69.36221   28.31058  59.2%     - 11915s
 28779 16887      -    -    -       69.36221   28.31058  59.2%     - 12243s
 29059 16587      -    -    -       69.36221   28.31058  59.2%     - 12361s
 29814 17305      -    -    -       69.36221   28.31058  59.2%     - 12447s
 30533 17922      -    -    -       69.36221   28.31058  59.2%     - 12532s
 31150 18643      -    -    -       69.36221   28.31058  59.2%     - 12620s
 31871 19366      -    -    -       69.36221   28.31058  59.2%     - 12701s
 32594 20077      -    -    -       69.36221   28.31058  59.2%     - 12788s
 33305 20717      -    -    -       69.36221   28.31058  59.2%     - 12861s
 33945 21152      -    -    -       69.36221   28.31058  59.2%     - 13788s
 34380 21874      -    -    -       69.36221   28.31058  59.2%     - 13882s
 35102 22588      -    -    -       69.36221   28.31058  59.2%     - 13969s
 35816 23319      -    -    -       69.36221   28.31058  59.2%     - 14064s
 36547 23947      -    -    -       69.36221   28.31058  59.2%     - 14142s
 37175 24646      -    -    -       69.36221   28.31058  59.2%     - 14217s
 37874 25316      -    -    -       69.36221   28.31058  59.2%     - 14290s
 38544 26021      -    -    -       69.36221   28.31058  59.2%     - 14350s
 39249 26734      -    -    -       69.36221   28.31058  59.2%     - 14444s
 39962 27454      -    -    -       69.36221   28.31058  59.2%     - 14494s
 40682 28264      -    -    -       69.36221   28.31058  59.2%     - 14658s
 41492 28977      -    -    -       69.36221   28.31058  59.2%     - 14712s
 42205 29668      -    -    -       69.36221   28.31058  59.2%     - 14770s
 42896 30356      -    -    -       69.36221   28.31058  59.2%     - 14835s
 43584 31023      -    -    -       69.36221   28.31058  59.2%     - 14891s
 44251 31702      -    -    -       69.36221   28.31058  59.2%     - 15021s
 44930 31717      -    -    -       69.36221   28.31058  59.2%     - 15321s
 44945 32371      -    -    -       69.36221   28.31058  59.2%     - 15373s
 45609 33074      -    -    -       69.36221   28.31058  59.2%     - 15423s
 46312 33713      -    -    -       69.36221   28.31058  59.2%     - 15476s
 46953 34241      -    -    -       65.15517   28.31058  56.5%     - 15547s
 47481 34897      -    -    -       65.15517   28.31058  56.5%     - 15636s
 48137 35419      -    -    -       65.15517   28.31058  56.5%     - 16084s
 48668 35146      -    -    -       65.15517   28.31058  56.5%     - 16166s
 49381 35813      -    -    -       65.15517   28.31058  56.5%     - 16250s
 50048 36507      -    -    -       65.15517   28.31058  56.5%     - 16314s
 50742 37207      -    -    -       65.15517   28.31058  56.5%     - 16376s
 51442 37858      -    -    -       65.15517   28.31058  56.5%     - 16443s
 52093 38566      -    -    -       65.15517   28.31058  56.5%     - 16492s
 52801 39266      -    -    -       65.15517   28.31058  56.5%     - 16576s
 53501 39947      -    -    -       65.15517   28.31058  56.5%     - 16631s
 54182 40598      -    -    -       65.15517   28.31058  56.5%     - 16722s
 54843 41270      -    -    -       65.15517   28.31058  56.5%     - 16787s
 55521 41923      -    -    -       65.15517   28.31058  56.5%     - 16872s
 56210 42542      -    -    -       65.15517   28.31058  56.5%     - 16965s
 56865 43208      -    -    -       65.15517   28.31058  56.5%     - 17050s
 57567 43855      -    -    -       65.15517   28.31058  56.5%     - 17130s
 58251 44498      -    -    -       65.15517   28.31058  56.5%     - 17212s
 58934 45143      -    -    -       65.15517   28.31058  56.5%     - 17278s
 59631 45779      -    -    -       65.15517   28.31058  56.5%     - 17340s
 60324 46348      -    -    -       65.15517   28.31058  56.5%     - 17434s
 60976 47077      -    -    -       65.15517   28.31058  56.5%     - 17575s
 61735 47738      -    -    -       65.15517   28.31058  56.5%     - 17645s
 62423 48405      -    -    -       65.15517   28.31058  56.5%     - 17712s
 63109 49046      -    -    -       65.15517   28.31058  56.5%     - 17779s
 63777 49721      -    -    -       65.15517   28.31058  56.5%     - 17862s
 64464 50378      -    -    -       65.15517   28.31058  56.5%     - 17925s
 65160 51007      -    -    -       65.15517   28.31058  56.5%     - 17996s
 65826 51616      -    -    -       65.15517   28.31058  56.5%     - 18066s
 66479 52259      -    -    -       65.15517   28.31058  56.5%     - 18164s
 67196 52878      -    -    -       65.15517   28.31058  56.5%     - 18241s
 67885 53485      -    -    -       65.15517   28.31058  56.5%     - 18329s
 68559 54120      -    -    -       65.15517   28.31058  56.5%     - 18409s
 69258 54747      -    -    -       65.15517   28.31058  56.5%     - 18505s
 69927 55426      -    -    -       65.15517   28.31058  56.5%     - 18576s
 70626 56139      -    -    -       65.15517   28.31058  56.5%     - 18646s
 71366 56858      -    -    -       65.15517   28.31058  56.5%     - 18729s
 72105 57559      -    -    -       65.15517   28.31058  56.5%     - 18799s
 72829 58218      -    -    -       65.15517   28.31058  56.5%     - 18859s
 73519 58873      -    -    -       65.15517   28.31058  56.5%     - 18920s
 74195 59507      -    -    -       65.15517   28.31058  56.5%     - 18999s
 74859 60169      -    -    -       65.15517   28.31058  56.5%     - 19107s
 75553 60808      -    -    -       65.15517   28.31058  56.5%     - 19183s
 76219 61432      -    -    -       65.15517   28.31058  56.5%     - 19236s
 76878 62070      -    -    -       65.15517   28.31058  56.5%     - 19294s
 77535 62738      -    -    -       65.15517   28.31058  56.5%     - 19352s
 78225 63385      -    -    -       65.15517   28.31058  56.5%     - 19407s
 78884 64053      -    -    -       65.15517   28.31058  56.5%     - 19460s
 79569 64642      -    -    -       65.15517   28.31058  56.5%     - 19512s
 80183 65225      -    -    -       59.48901   28.31058  52.4%     - 19583s
 80780 65886      -    -    -       59.48901   28.31058  52.4%     - 19736s
 81475 66481      -    -    -       59.17428   28.31058  52.2%     - 19864s
 82100 67148      -    -    -       59.17428   28.31058  52.2%     - 19934s
 82805 67793      -    -    -       59.17428   28.31058  52.2%     - 20014s
 83504 68464      -    -    -       59.17428   28.31058  52.2%     - 20109s
 84223 69104      -    -    -       59.17428   28.31058  52.2%     - 20165s
 84915 69744      -    -    -       59.17428   28.31058  52.2%     - 20242s
 85571 70430      -    -    -       59.17428   28.31058  52.2%     - 20315s
 86257 71063      -    -    -       59.17428   28.31058  52.2%     - 20445s
 86890 71662      -    -    -       59.17428   28.31058  52.2%     - 20529s
 87489 72320      -    -    -       59.17428   28.31058  52.2%     - 20628s
 88149 72956      -    -    -       59.17428   28.31058  52.2%     - 20686s
 88785 73547      -    -    -       59.17428   28.31058  52.2%     - 20761s
 89397 74136      -    -    -       59.17428   28.31058  52.2%     - 20859s
 89928 74136      -    -    -       59.17428   28.31058  52.2%     - 20860s
 90046 74688      -    -    -       59.17428   28.31058  52.2%     - 20971s
 90673 75250      -    -    -       59.17428   28.31058  52.2%     - 21077s
 91292 75885      -    -    -       59.17428   28.31058  52.2%     - 21693s
 91984 75899      -    -    -       59.17428   28.31058  52.2%     - 22040s
 92000 76484      -    -    -       59.17428   28.31058  52.2%     - 22172s
 92641 77176      -    -    -       59.17428   28.31058  52.2%     - 22284s
 93390 77843      -    -    -       59.17428   28.31058  52.2%     - 22373s
 94118 78549      -    -    -       59.17428   28.31058  52.2%     - 22495s
 94884 78562      -    -    -       59.17428   28.31058  52.2%     - 23104s
 94899 79174      -    -    -       59.17428   28.31058  52.2%     - 23202s
 95599 79828      -    -    -       59.17428   28.31058  52.2%     - 23294s
 96342 80495      -    -    -       59.17428   28.31058  52.2%     - 23401s
 97083 81209      -    -    -       59.17428   28.31058  52.2%     - 23508s
 97874 81881      -    -    -       59.17428   28.31058  52.2%     - 23610s
 98603 82539      -    -    -       59.17428   28.31058  52.2%     - 23749s
 99328 83119      -    -    -       59.17428   28.31058  52.2%     - 23847s
 99993 83758      -    -    -       59.17428   28.31058  52.2%     - 23957s
 100702 84438      -    -    -       59.17428   28.31058  52.2%     - 24154s
 101468 85091      -    -    -       59.17428   28.31058  52.2%     - 24213s
 102216 85695      -    -    -       59.17428   28.31058  52.2%     - 24264s
 102926 86253      -    -    -       59.17428   28.31058  52.2%     - 24312s
 103599 86762      -    -    -       59.17428   28.31058  52.2%     - 24409s
 104237 87363      -    -    -       59.17428   28.31058  52.2%     - 24474s
 104968 87949      -    -    -       59.17428   28.31058  52.2%     - 24537s
 105651 88563      -    -    -       59.17428   28.31058  52.2%     - 24617s
 106343 88748      -    -    -       59.17428   28.31058  52.2%     - 25553s
 106564 78497      -    -    -       59.17428   28.31058  52.2%     - 25650s
 107261 79117      -    -    -       59.17428   28.31058  52.2%     - 25762s
 107916 79490      -    -    -       59.17428   28.31058  52.2%     - 25899s
 108337 79498      -    -    -       58.64996   28.31058  51.7%     - 26021s
 109063 80062      -    -    -       58.64996   28.31058  51.7%     - 26217s
 109761 80516      -    -    -       58.64996   28.31058  51.7%     - 26343s
 110291 81065      -    -    -       58.64996   28.31058  51.7%     - 26419s
 110986 81691      -    -    -       58.64996   28.31058  51.7%     - 26484s
 111761 82282      -    -    -       58.64996   28.31058  51.7%     - 26579s
 112570 82907      -    -    -       58.64996   28.31058  51.7%     - 26671s
 113365 83513      -    -    -       58.64996   28.31058  51.7%     - 26795s
 114107 84069      -    -    -       58.64996   28.31058  51.7%     - 26914s
 114799 84607      -    -    -       58.64996   28.31058  51.7%     - 27018s
 115433 85060      -    -    -       58.64996   28.31058  51.7%     - 27161s
 115971 85724      -    -    -       58.64996   28.31058  51.7%     - 27229s
 116709 86390      -    -    -       58.64996   28.31058  51.7%     - 27338s
 117434 86990      -    -    -       58.64996   28.31058  51.7%     - 27454s
 118078 87571      -    -    -       58.64996   28.31058  51.7%     - 27581s
 118726 88043      -    -    -       58.64996   28.31058  51.7%     - 27667s
 119300 88582      -    -    -       58.64996   28.31058  51.7%     - 27796s
 119978 89117      -    -    -       58.64996   28.31058  51.7%     - 27863s
 120666 89682      -    -    -       58.64996   28.31058  51.7%     - 28275s
 121367 90188      -    -    -       58.64996   28.31058  51.7%     - 28355s
 122040 90792      -    -    -       58.64996   28.31058  51.7%     - 28484s
 122747 91400      -    -    -       58.64996   28.31058  51.7%     - 28599s
 123450 91926      -    -    -       58.64996   28.31058  51.7%     - 28718s
 124065 92468      -    -    -       58.64996   28.31058  51.7%     - 28796s
 124700 93048      -    -    -       58.64996   28.31058  51.7%     - 28878s
 125376 93633      -    -    -       58.64996   28.31058  51.7%     - 28974s
 126047 94242      -    -    -       58.64996   28.31058  51.7%     - 29206s
 126748 94255      -    -    -       58.64996   28.31058  51.7%     - 29524s
 126765 94754      -    -    -       58.64996   28.31058  51.7%     - 29988s
 127374 91221      -    -    -       57.48520   28.31058  50.8%     - 30113s
 128065 91899      -    -    -       57.48520   28.31058  50.8%     - 30295s
 128746 92590      -    -    -       57.48520   28.31058  50.8%     - 30370s
 129443 93258      -    -    -       57.48520   28.31058  50.8%     - 30484s
 130129 94027      -    -    -       57.48520   28.31058  50.8%     - 30548s
 130948 94646      -    -    -       57.48520   28.31058  50.8%     - 30626s
 131644 95324      -    -    -       57.48520   28.31058  50.8%     - 30888s
 132403 95968      -    -    -       57.48520   28.31058  50.8%     - 30995s
 133141 96521      -    -    -       57.48520   28.31058  50.8%     - 31260s
 133825 97067      -    -    -       57.48520   28.31058  50.8%     - 31527s
 134516 97597      -    -    -       57.48520   28.31058  50.8%     - 31623s
 135196 98149      -    -    -       57.48520   28.31058  50.8%     - 31703s
 135878 98679      -    -    -       57.48520   28.31058  50.8%     - 31826s
 136561 99211      -    -    -       57.48520   28.31058  50.8%     - 31933s
 137265 99675      -    -    -       57.48520   28.31058  50.8%     - 32031s
 137895 100199      -    -    -       57.48520   28.31058  50.8%     - 32102s
 138589 100734      -    -    -       57.48520   28.31058  50.8%     - 32193s
 139287 101333      -    -    -       57.48520   28.31058  50.8%     - 32296s
 140015 101916      -    -    -       57.48520   28.31058  50.8%     - 32364s
 140750 102472      -    -    -       57.48520   28.31058  50.8%     - 32614s
 141474 103021      -    -    -       57.48520   28.31058  50.8%     - 32728s
 142156 103533      -    -    -       57.48520   28.31058  50.8%     - 33112s
 142794 104085      -    -    -       57.48520   28.31058  50.8%     - 33225s
 143466 104574      -    -    -       57.48520   28.31058  50.8%     - 33327s
 144129 105043      -    -    -       57.48520   28.31058  50.8%     - 33432s
 144795 105495      -    -    -       57.48520   28.31058  50.8%     - 33504s
 145438 106016      -    -    -       57.48520   28.31058  50.8%     - 33597s
 146137 106550      -    -    -       57.48520   28.31058  50.8%     - 33661s
 146815 107089      -    -    -       57.48520   28.31058  50.8%     - 33753s
 147490 107698      -    -    -       57.48520   28.31058  50.8%     - 33854s
 148189 108297      -    -    -       55.97634   28.31058  49.4%     - 33959s
 148881 108311      -    -    -       55.97634   28.31058  49.4%     - 35019s
 148897 108334      -    -    -       55.97634   28.31058  49.4%     - 36775s
 148920 97880      -    -    -       53.29035   28.31058  46.9%     - 36889s
 149597 98562      -    -    -       53.29035   28.31058  46.9%     - 36992s
 150299 98604      -    -    -       53.29035   28.31058  46.9%     - 37288s
 150341 98207      -    -    -       53.08090   28.31058  46.7%     - 37504s
 150655 98920      -    -    -       53.08090   28.31058  46.7%     - 37838s
 151371 99220      -    -    -       53.08090   28.31058  46.7%     - 38276s
 151671 99745      -    -    -       53.08090   28.31058  46.7%     - 38547s
 152196 100514      -    -    -       53.08090   28.31058  46.7%     - 38888s
 152965 101236      -    -    -       53.08090   28.31058  46.7%     - 39249s

Resetting heuristic parameters to focus on improving solution
(using Heuristics=0.5 and RINS=10)...

 153704 101252      -    -    -       53.08090   28.31058  46.7%     - 39601s
 153726 102043      -    -    -       53.07686   28.31058  46.7%     - 40860s
 154551 102483      -    -    -       52.95267   28.31058  46.5%     - 41034s
 155376 102498      -    -    -       52.95267   28.31058  46.5%     - 41609s
 155392 102510      -    -    -       52.95267   28.31058  46.5%     - 42050s
 155416 102530      -    -    -       52.95267   28.31058  46.5%     - 42458s
 155442 103082      -    -    -       52.94667   28.31058  46.5%     - 42759s
 156267 103091      -    -    -       52.94667   28.31058  46.5%     - 43145s
 156294 103224      -    -    -       52.94667   28.31058  46.5%     - 43200s

Instance 0 was solved

Explored 156550 nodes (53307389 simplex iterations) in 43202.62 seconds (59169.49 work units)
Thread count was 15 (of 96 available processors)

Solution count 10: 52.8098 52.9467 52.9467 ... 52.9527 

Time limit reached
Best objective 5.280980149738e+01, best bound 2.831057535816e+01, gap 46.3914%
